161 5
10 10 10 10 10 

0 0 0 0 0 0 5 2 14 36 58 80 
0 0 0 0 0 0 4 3 4 6 7 
4 0 0 0 0 1 4 9 8 5 96 
5 0 0 0 0 6 3 11 9 8 
9 0 0 0 0 4 3 12 11 10 
6 0 0 0 0 4 3 12 11 10 
2 0 0 0 0 6 2 11 8 
2 0 0 0 0 3 1 10 
1 0 0 0 0 4 1 10 
9 0 0 0 0 7 1 13 
10 0 0 0 0 6 1 13 
3 0 0 0 0 9 1 13 
0 0 0 0 0 0 2 102 114 
0 0 0 0 0 0 7 15 16 17 19 20 21 22 
10 1 1 0 0 0 3 34 26 18 
6 3 3 0 0 0 6 34 33 31 29 26 24 
2 6 10 0 0 0 4 34 27 26 23 
2 4 6 0 0 0 4 33 29 24 23 
6 5 4 0 0 0 4 33 29 25 24 
10 8 4 0 0 0 5 33 32 31 29 26 
2 6 5 0 0 0 5 33 32 31 29 26 
5 4 5 0 0 0 3 34 26 23 
1 8 4 0 0 0 3 32 31 30 
6 9 8 0 0 0 2 32 28 
8 3 3 0 0 0 2 31 30 
10 6 6 0 0 0 1 28 
10 3 8 0 0 0 1 29 
9 3 3 0 0 0 1 30 
7 3 5 0 0 0 2 30 104 
5 7 5 0 0 0 1 35 
10 6 7 0 0 0 1 35 
9 6 3 0 0 0 1 35 
8 5 7 0 0 0 1 35 
9 4 3 0 0 0 1 35 
0 0 0 0 0 0 1 126 
0 0 0 0 0 0 6 37 38 39 40 41 42 
10 1 0 0 0 1 5 51 47 45 44 43 
6 3 0 0 0 5 4 48 47 46 45 
5 4 0 0 0 4 4 48 47 45 43 
7 4 0 0 0 3 4 47 44 43 69 
9 4 0 0 0 4 5 56 55 54 48 46 
1 2 0 0 0 8 2 47 43 
4 5 0 0 0 4 5 56 55 54 50 49 
8 8 0 0 0 9 3 55 54 48 
6 7 0 0 0 4 3 56 54 49 
7 5 0 0 0 8 2 50 49 
10 5 0 0 0 4 3 55 53 52 
4 2 0 0 0 3 1 49 
6 5 0 0 0 6 2 53 52 
3 8 0 0 0 5 2 53 52 
4 5 0 0 0 3 2 54 52 
7 8 0 0 0 4 1 57 
8 6 0 0 0 6 1 57 
2 7 0 0 0 9 1 57 
10 5 0 0 0 5 1 57 
7 6 0 0 0 5 1 57 
0 0 0 0 0 0 1 126 
0 0 0 0 0 0 9 59 60 62 63 74 75 76 77 78 
2 0 0 0 1 1 4 73 72 67 61 
10 0 0 0 9 7 5 71 69 68 67 65 
6 0 0 0 5 3 3 69 68 64 
8 0 0 0 6 3 2 70 67 
4 0 0 0 5 5 2 68 67 
6 0 0 0 3 5 1 65 
7 0 0 0 6 4 1 66 
10 0 0 0 6 4 1 79 
10 0 0 0 4 10 1 79 
10 0 0 0 5 6 1 79 
10 0 0 0 6 4 1 79 
1 0 0 0 3 7 1 79 
3 0 0 0 3 9 1 79 
4 0 0 0 4 6 1 79 
9 0 0 0 7 1 1 79 
7 0 0 0 4 7 1 79 
5 0 0 0 8 5 1 79 
4 0 0 0 5 3 1 79 
1 0 0 0 6 8 1 79 
8 0 0 0 4 2 1 79 
0 0 0 0 0 0 1 126 
0 0 0 0 0 0 5 81 82 83 84 89 
9 1 0 0 1 0 4 92 91 88 85 
3 5 0 0 4 0 4 92 91 88 85 
8 5 0 0 3 0 4 100 91 88 86 
8 4 0 0 2 0 5 99 92 91 88 87 
10 2 0 0 7 0 3 100 99 87 
7 5 0 0 7 0 2 99 87 
9 5 0 0 5 0 4 97 94 93 90 
3 4 0 0 6 0 4 97 94 93 90 
5 6 0 0 7 0 4 100 99 92 91 
5 8 0 0 5 0 2 98 96 
2 5 0 0 5 0 2 97 95 
6 4 0 0 8 0 2 96 95 
3 7 0 0 6 0 1 95 
6 5 0 0 2 0 1 95 
3 6 0 0 3 0 1 101 
6 6 0 0 9 0 1 101 
7 5 0 0 3 0 1 101 
2 4 0 0 8 0 1 101 
7 5 0 0 2 0 1 101 
5 8 0 0 7 0 1 101 
0 0 0 0 0 0 1 126 
0 0 0 0 0 0 5 103 104 105 107 112 
8 0 0 0 0 1 2 111 106 
9 0 0 0 0 6 3 111 110 109 
1 0 0 0 0 3 2 110 108 
5 0 0 0 0 2 2 110 109 
4 0 0 0 0 9 1 108 
6 0 0 0 0 7 1 109 
1 0 0 0 0 5 1 113 
10 0 0 0 0 6 1 113 
8 0 0 0 0 6 1 113 
9 0 0 0 0 5 1 113 
0 0 0 0 0 0 1 126 
0 0 0 0 0 0 5 115 116 117 119 120 
3 0 0 1 0 0 3 124 123 121 
1 0 0 10 0 0 2 123 121 
3 0 0 6 0 0 1 118 
5 0 0 6 0 0 1 121 
2 0 0 3 0 0 1 122 
7 0 0 3 0 0 1 122 
9 0 0 4 0 0 1 125 
8 0 0 7 0 0 1 125 
7 0 0 5 0 0 1 125 
10 0 0 5 0 0 1 125 
0 0 0 0 0 0 1 126 
0 0 0 0 0 0 5 127 129 130 135 136 
10 0 0 0 0 1 2 132 128 
10 0 0 0 0 5 3 134 133 131 
10 0 0 0 0 3 3 133 132 131 
4 0 0 0 0 3 2 132 131 
6 0 0 0 0 7 1 137 
1 0 0 0 0 6 1 137 
6 0 0 0 0 7 1 137 
8 0 0 0 0 8 1 137 
5 0 0 0 0 2 1 137 
7 0 0 0 0 8 1 137 
0 0 0 0 0 0 1 138 
0 0 0 0 0 0 4 139 140 142 148 
1 0 0 1 0 0 3 145 144 143 
2 0 0 3 0 0 2 147 141 
2 0 0 4 0 0 2 145 144 
8 0 0 5 0 0 1 143 
6 0 0 5 0 0 1 146 
6 0 0 8 0 0 1 149 
7 0 0 3 0 0 1 149 
5 0 0 9 0 0 1 149 
10 0 0 9 0 0 1 149 
2 0 0 3 0 0 1 149 
0 0 0 0 0 0 1 150 
0 0 0 0 0 0 6 151 152 154 158 159 160 
4 0 0 1 0 0 3 157 156 155 
4 0 0 3 0 0 1 153 
5 0 0 6 0 0 2 156 155 
7 0 0 5 0 0 1 155 
4 0 0 6 0 0 1 161 
3 0 0 6 0 0 1 161 
1 0 0 5 0 0 1 161 
8 0 0 3 0 0 1 161 
3 0 0 9 0 0 1 161 
2 0 0 6 0 0 1 161 
0 0 0 0 0 0 0 
